p cnf 10 46
 -6 -9 -3 0
 5 1 8 0
 -2 1 3 0
 -1 -8 -2 0
 -5 2 3 0
 4 -1 9 0
 1 -6 -3 0
 -5 1 6 0
 -2 4 -5 0
 -7 4 3 0
 8 1 4 0
 -9 -8 -1 0
 -9 1 -3 0
 1 10 -7 0
 4 9 -7 0
 7 9 -8 0
 -5 -3 1 0
 2 8 -3 0
 1 -2 -8 0
 -9 3 1 0
 -6 -8 2 0
 9 10 1 0
 -4 7 9 0
 -10 -6 -5 0
 7 -9 -6 0
 7 -6 8 0
 -2 10 4 0
 -7 -10 -1 0
 -9 -2 10 0
 8 6 -5 0
 -1 -2 4 0
 -9 6 10 0
 -4 -6 1 0
 -2 -4 -6 0
 -5 7 8 0
 8 -5 3 0
 -10 3 2 0
 -6 3 -9 0
 3 -5 1 0
 -1 9 7 0
 8 -6 -9 0
 8 -3 2 0
 -2 -1 -10 0
 1 4 -10 0
 10 -1 -4 0
 -6 -5 1 0
c 1 a_1
c 2 a_2
c 3 a_3
c 4 a_4
c 5 a_5
c 6 a_6
c 7 a_7
c 8 a_8
c 9 a_9
c 10 a_10
